GLPSOL--GLPK LP/MIP Solver 5.0
Parameter(s) specified in the command line:
 --lp ../modeles/10_154.lp --log 10_154.log
Reading problem data from '../modeles/10_154.lp'...
1581 rows, 3100 columns, 10810 non-zeros
1540 integer variables, all of which are binary
4697 lines were read
GLPK Integer Optimizer 5.0
1581 rows, 3100 columns, 10810 non-zeros
1540 integer variables, all of which are binary
Preprocessing...
1540 constraint coefficient(s) were reduced
1581 rows, 3090 columns, 10800 non-zeros
1540 integer variables, all of which are binary
Scaling...
 A: min|aij| =  6.747e-04  max|aij| =  4.000e+00  ratio =  5.929e+03
GM: min|aij| =  1.140e-01  max|aij| =  8.775e+00  ratio =  7.700e+01
EQ: min|aij| =  1.299e-02  max|aij| =  1.000e+00  ratio =  7.700e+01
2N: min|aij| =  1.079e-02  max|aij| =  1.762e+00  ratio =  1.633e+02
Constructing initial basis...
Size of triangular part is 1581
Solving LP relaxation...
GLPK Simplex Optimizer 5.0
1581 rows, 3090 columns, 10800 non-zeros
      0: obj =   2.000000000e+01 inf =   4.950e+01 (21)
    209: obj =   1.117438623e-01 inf =   0.000e+00 (0)
*   636: obj =  -3.160779221e+00 inf =   1.145e-14 (0)
OPTIMAL LP SOLUTION FOUND
Integer optimization begins...
Long-step dual simplex will be used
+   636: mip =     not found yet >=              -inf        (1; 0)
+   646: >>>>>  -3.160779221e+00 >=  -3.160779221e+00 < 0.1% (6; 0)
+   646: mip =  -3.160779221e+00 >=     tree is empty   0.0% (0; 11)
INTEGER OPTIMAL SOLUTION FOUND
Time used:   0.1 secs
Memory used: 4.7 Mb (4878050 bytes)
